* #variable= 50 #constraint= 239 #equal= 0 intsize= 6
+1 x1 +1 x2 +1 x3 +1 x4 +1 x5 +1 x6 +1 x7 +1 x8 >= 1 ;
+1 x11 +1 x12 +1 x13 +1 x14 +1 x15 +1 x16 +1 x17 >= 1 ;
+1 x21 +1 x22 +1 x23 +1 x24 +1 x25 +1 x26 >= 1 ;
+1 x31 +1 x32 +1 x33 +1 x34 +1 x35 >= 1 ;
+1 x41 +1 x42 +1 x43 +1 x44 >= 1 ;
+1 ~x1 +1 ~x2 >= 1 ;
+1 ~x1 +1 ~x3 >= 1 ;
+1 ~x1 +1 ~x4 >= 1 ;
+1 ~x1 +1 ~x5 >= 1 ;
+1 ~x1 +1 ~x6 >= 1 ;
+1 ~x1 +1 ~x7 >= 1 ;
+1 ~x1 +1 ~x8 >= 1 ;
+1 ~x2 +1 ~x3 >= 1 ;
+1 ~x2 +1 ~x4 >= 1 ;
+1 ~x2 +1 ~x5 >= 1 ;
+1 ~x2 +1 ~x6 >= 1 ;
+1 ~x2 +1 ~x7 >= 1 ;
+1 ~x2 +1 ~x8 >= 1 ;
+1 ~x3 +1 ~x4 >= 1 ;
+1 ~x3 +1 ~x5 >= 1 ;
+1 ~x3 +1 ~x6 >= 1 ;
+1 ~x3 +1 ~x7 >= 1 ;
+1 ~x3 +1 ~x8 >= 1 ;
+1 ~x4 +1 ~x5 >= 1 ;
+1 ~x4 +1 ~x6 >= 1 ;
+1 ~x4 +1 ~x7 >= 1 ;
+1 ~x4 +1 ~x8 >= 1 ;
+1 ~x5 +1 ~x6 >= 1 ;
+1 ~x5 +1 ~x7 >= 1 ;
+1 ~x5 +1 ~x8 >= 1 ;
+1 ~x6 +1 ~x7 >= 1 ;
+1 ~x6 +1 ~x8 >= 1 ;
+1 ~x7 +1 ~x8 >= 1 ;
+1 ~x11 +1 ~x12 >= 1 ;
+1 ~x11 +1 ~x13 >= 1 ;
+1 ~x11 +1 ~x14 >= 1 ;
+1 ~x11 +1 ~x15 >= 1 ;
+1 ~x11 +1 ~x16 >= 1 ;
+1 ~x11 +1 ~x17 >= 1 ;
+1 ~x12 +1 ~x13 >= 1 ;
+1 ~x12 +1 ~x14 >= 1 ;
+1 ~x12 +1 ~x15 >= 1 ;
+1 ~x12 +1 ~x16 >= 1 ;
+1 ~x12 +1 ~x17 >= 1 ;
+1 ~x13 +1 ~x14 >= 1 ;
+1 ~x13 +1 ~x15 >= 1 ;
+1 ~x13 +1 ~x16 >= 1 ;
+1 ~x13 +1 ~x17 >= 1 ;
+1 ~x14 +1 ~x15 >= 1 ;
+1 ~x14 +1 ~x16 >= 1 ;
+1 ~x14 +1 ~x17 >= 1 ;
+1 ~x15 +1 ~x16 >= 1 ;
+1 ~x15 +1 ~x17 >= 1 ;
+1 ~x16 +1 ~x17 >= 1 ;
+1 ~x21 +1 ~x22 >= 1 ;
+1 ~x21 +1 ~x23 >= 1 ;
+1 ~x21 +1 ~x24 >= 1 ;
+1 ~x21 +1 ~x25 >= 1 ;
+1 ~x21 +1 ~x26 >= 1 ;
+1 ~x22 +1 ~x23 >= 1 ;
+1 ~x22 +1 ~x24 >= 1 ;
+1 ~x22 +1 ~x25 >= 1 ;
+1 ~x22 +1 ~x26 >= 1 ;
+1 ~x23 +1 ~x24 >= 1 ;
+1 ~x23 +1 ~x25 >= 1 ;
+1 ~x23 +1 ~x26 >= 1 ;
+1 ~x24 +1 ~x25 >= 1 ;
+1 ~x24 +1 ~x26 >= 1 ;
+1 ~x25 +1 ~x26 >= 1 ;
+1 ~x31 +1 ~x32 >= 1 ;
+1 ~x31 +1 ~x33 >= 1 ;
+1 ~x31 +1 ~x34 >= 1 ;
+1 ~x31 +1 ~x35 >= 1 ;
+1 ~x32 +1 ~x33 >= 1 ;
+1 ~x32 +1 ~x34 >= 1 ;
+1 ~x32 +1 ~x35 >= 1 ;
+1 ~x33 +1 ~x34 >= 1 ;
+1 ~x33 +1 ~x35 >= 1 ;
+1 ~x34 +1 ~x35 >= 1 ;
+1 ~x41 +1 ~x42 >= 1 ;
+1 ~x41 +1 ~x43 >= 1 ;
+1 ~x41 +1 ~x44 >= 1 ;
+1 ~x42 +1 ~x43 >= 1 ;
+1 ~x42 +1 ~x44 >= 1 ;
+1 ~x43 +1 ~x44 >= 1 ;
+1 ~x1 +1 ~x11 >= 1 ;
+1 ~x1 +1 ~x21 >= 1 ;
+1 ~x1 +1 ~x31 >= 1 ;
+1 ~x1 +1 ~x41 >= 1 ;
+1 ~x11 +1 ~x21 >= 1 ;
+1 ~x11 +1 ~x31 >= 1 ;
+1 ~x11 +1 ~x41 >= 1 ;
+1 ~x21 +1 ~x31 >= 1 ;
+1 ~x21 +1 ~x41 >= 1 ;
+1 ~x31 +1 ~x41 >= 1 ;
+1 ~x2 +1 ~x12 >= 1 ;
+1 ~x2 +1 ~x22 >= 1 ;
+1 ~x2 +1 ~x32 >= 1 ;
+1 ~x2 +1 ~x42 >= 1 ;
+1 ~x12 +1 ~x22 >= 1 ;
+1 ~x12 +1 ~x32 >= 1 ;
+1 ~x12 +1 ~x42 >= 1 ;
+1 ~x22 +1 ~x32 >= 1 ;
+1 ~x22 +1 ~x42 >= 1 ;
+1 ~x32 +1 ~x42 >= 1 ;
+1 ~x3 +1 ~x13 >= 1 ;
+1 ~x3 +1 ~x23 >= 1 ;
+1 ~x3 +1 ~x33 >= 1 ;
+1 ~x3 +1 ~x43 >= 1 ;
+1 ~x1 +1 ~x3 >= 1 ;
+1 ~x1 +1 ~x13 >= 1 ;
+1 ~x1 +1 ~x23 >= 1 ;
+1 ~x1 +1 ~x33 >= 1 ;
+1 ~x1 +1 ~x43 >= 1 ;
+1 ~x13 +1 ~x23 >= 1 ;
+1 ~x13 +1 ~x33 >= 1 ;
+1 ~x13 +1 ~x43 >= 1 ;
+1 ~x23 +1 ~x33 >= 1 ;
+1 ~x23 +1 ~x43 >= 1 ;
+1 ~x33 +1 ~x43 >= 1 ;
+1 ~x4 +1 ~x14 >= 1 ;
+1 ~x4 +1 ~x11 >= 1 ;
+1 ~x4 +1 ~x24 >= 1 ;
+1 ~x4 +1 ~x34 >= 1 ;
+1 ~x4 +1 ~x44 >= 1 ;
+1 ~x2 +1 ~x4 >= 1 ;
+1 ~x2 +1 ~x14 >= 1 ;
+1 ~x2 +1 ~x11 >= 1 ;
+1 ~x2 +1 ~x24 >= 1 ;
+1 ~x2 +1 ~x34 >= 1 ;
+1 ~x2 +1 ~x44 >= 1 ;
+1 ~x14 +1 ~x24 >= 1 ;
+1 ~x14 +1 ~x34 >= 1 ;
+1 ~x14 +1 ~x44 >= 1 ;
+1 ~x11 +1 ~x14 >= 1 ;
+1 ~x11 +1 ~x24 >= 1 ;
+1 ~x11 +1 ~x34 >= 1 ;
+1 ~x11 +1 ~x44 >= 1 ;
+1 ~x24 +1 ~x34 >= 1 ;
+1 ~x24 +1 ~x44 >= 1 ;
+1 ~x34 +1 ~x44 >= 1 ;
+1 ~x5 +1 ~x15 >= 1 ;
+1 ~x5 +1 ~x12 >= 1 ;
+1 ~x5 +1 ~x25 >= 1 ;
+1 ~x5 +1 ~x21 >= 1 ;
+1 ~x5 +1 ~x35 >= 1 ;
+1 ~x3 +1 ~x5 >= 1 ;
+1 ~x3 +1 ~x15 >= 1 ;
+1 ~x3 +1 ~x12 >= 1 ;
+1 ~x3 +1 ~x25 >= 1 ;
+1 ~x3 +1 ~x21 >= 1 ;
+1 ~x3 +1 ~x35 >= 1 ;
+1 ~x15 +1 ~x25 >= 1 ;
+1 ~x15 +1 ~x21 >= 1 ;
+1 ~x15 +1 ~x35 >= 1 ;
+1 ~x12 +1 ~x15 >= 1 ;
+1 ~x12 +1 ~x25 >= 1 ;
+1 ~x12 +1 ~x21 >= 1 ;
+1 ~x12 +1 ~x35 >= 1 ;
+1 ~x25 +1 ~x35 >= 1 ;
+1 ~x21 +1 ~x25 >= 1 ;
+1 ~x21 +1 ~x35 >= 1 ;
+1 ~x6 +1 ~x16 >= 1 ;
+1 ~x6 +1 ~x13 >= 1 ;
+1 ~x6 +1 ~x26 >= 1 ;
+1 ~x6 +1 ~x22 >= 1 ;
+1 ~x6 +1 ~x31 >= 1 ;
+1 ~x4 +1 ~x6 >= 1 ;
+1 ~x4 +1 ~x16 >= 1 ;
+1 ~x4 +1 ~x13 >= 1 ;
+1 ~x4 +1 ~x26 >= 1 ;
+1 ~x4 +1 ~x22 >= 1 ;
+1 ~x4 +1 ~x31 >= 1 ;
+1 ~x16 +1 ~x26 >= 1 ;
+1 ~x16 +1 ~x22 >= 1 ;
+1 ~x16 +1 ~x31 >= 1 ;
+1 ~x13 +1 ~x16 >= 1 ;
+1 ~x13 +1 ~x26 >= 1 ;
+1 ~x13 +1 ~x22 >= 1 ;
+1 ~x13 +1 ~x31 >= 1 ;
+1 ~x26 +1 ~x31 >= 1 ;
+1 ~x22 +1 ~x26 >= 1 ;
+1 ~x22 +1 ~x31 >= 1 ;
+1 ~x7 +1 ~x17 >= 1 ;
+1 ~x7 +1 ~x14 >= 1 ;
+1 ~x7 +1 ~x23 >= 1 ;
+1 ~x7 +1 ~x32 >= 1 ;
+1 ~x7 +1 ~x41 >= 1 ;
+1 ~x5 +1 ~x7 >= 1 ;
+1 ~x5 +1 ~x17 >= 1 ;
+1 ~x5 +1 ~x14 >= 1 ;
+1 ~x5 +1 ~x23 >= 1 ;
+1 ~x5 +1 ~x32 >= 1 ;
+1 ~x5 +1 ~x41 >= 1 ;
+1 ~x17 +1 ~x23 >= 1 ;
+1 ~x17 +1 ~x32 >= 1 ;
+1 ~x17 +1 ~x41 >= 1 ;
+1 ~x14 +1 ~x17 >= 1 ;
+1 ~x14 +1 ~x23 >= 1 ;
+1 ~x14 +1 ~x32 >= 1 ;
+1 ~x14 +1 ~x41 >= 1 ;
+1 ~x23 +1 ~x32 >= 1 ;
+1 ~x23 +1 ~x41 >= 1 ;
+1 ~x32 +1 ~x41 >= 1 ;
+1 ~x8 +1 ~x15 >= 1 ;
+1 ~x8 +1 ~x24 >= 1 ;
+1 ~x8 +1 ~x33 >= 1 ;
+1 ~x8 +1 ~x42 >= 1 ;
+1 ~x6 +1 ~x8 >= 1 ;
+1 ~x6 +1 ~x15 >= 1 ;
+1 ~x6 +1 ~x24 >= 1 ;
+1 ~x6 +1 ~x33 >= 1 ;
+1 ~x6 +1 ~x42 >= 1 ;
+1 ~x15 +1 ~x24 >= 1 ;
+1 ~x15 +1 ~x33 >= 1 ;
+1 ~x15 +1 ~x42 >= 1 ;
+1 ~x24 +1 ~x33 >= 1 ;
+1 ~x24 +1 ~x42 >= 1 ;
+1 ~x33 +1 ~x42 >= 1 ;
+1 ~x7 +1 ~x16 >= 1 ;
+1 ~x7 +1 ~x25 >= 1 ;
+1 ~x7 +1 ~x34 >= 1 ;
+1 ~x7 +1 ~x43 >= 1 ;
+1 ~x16 +1 ~x25 >= 1 ;
+1 ~x16 +1 ~x34 >= 1 ;
+1 ~x16 +1 ~x43 >= 1 ;
+1 ~x25 +1 ~x34 >= 1 ;
+1 ~x25 +1 ~x43 >= 1 ;
+1 ~x34 +1 ~x43 >= 1 ;
+1 ~x8 +1 ~x17 >= 1 ;
+1 ~x8 +1 ~x26 >= 1 ;
+1 ~x8 +1 ~x35 >= 1 ;
+1 ~x8 +1 ~x44 >= 1 ;
+1 ~x17 +1 ~x26 >= 1 ;
+1 ~x17 +1 ~x35 >= 1 ;
+1 ~x17 +1 ~x44 >= 1 ;
+1 ~x26 +1 ~x35 >= 1 ;
+1 ~x26 +1 ~x44 >= 1 ;
+1 ~x35 +1 ~x44 >= 1 ;
