* #variable= 60 #constraint= 17 #equal= 0 intsize= 6
+1 x1 +1 x2 +1 x3 +1 x4 +1 x5 >= 1 ;
+1 x6 +1 x7 +1 x8 +1 x9 +1 x10 >= 1 ;
+1 x11 +1 x12 +1 x13 +1 x14 +1 x15 >= 1 ;
+1 x16 +1 x17 +1 x18 +1 x19 +1 x20 >= 1 ;
+1 x21 +1 x22 +1 x23 +1 x24 +1 x25 >= 1 ;
+1 x26 +1 x27 +1 x28 +1 x29 +1 x30 >= 1 ;
+1 x31 +1 x32 +1 x33 +1 x34 +1 x35 >= 1 ;
+1 x36 +1 x37 +1 x38 +1 x39 +1 x40 >= 1 ;
+1 x41 +1 x42 +1 x43 +1 x44 +1 x45 >= 1 ;
+1 x46 +1 x47 +1 x48 +1 x49 +1 x50 >= 1 ;
+1 x51 +1 x52 +1 x53 +1 x54 +1 x55 >= 1 ;
+1 x56 +1 x57 +1 x58 +1 x59 +1 x60 >= 1 ;
+10 ~x1 +9 ~x6 +8 ~x11 +8 ~x16 +6 ~x21 +5 ~x26 +4 ~x31 +4 ~x36 +4 ~x41 +4 ~x46 +4 ~x51 +4 ~x56 >= 56 ;
+10 ~x2 +9 ~x7 +8 ~x12 +8 ~x17 +6 ~x22 +5 ~x27 +4 ~x32 +4 ~x37 +4 ~x42 +4 ~x47 +4 ~x52 +4 ~x57 >= 56 ;
+10 ~x3 +9 ~x8 +8 ~x13 +8 ~x18 +6 ~x23 +5 ~x28 +4 ~x33 +4 ~x38 +4 ~x43 +4 ~x48 +4 ~x53 +4 ~x58 >= 56 ;
+10 ~x4 +9 ~x9 +8 ~x14 +8 ~x19 +6 ~x24 +5 ~x29 +4 ~x34 +4 ~x39 +4 ~x44 +4 ~x49 +4 ~x54 +4 ~x59 >= 56 ;
+10 ~x5 +9 ~x10 +8 ~x15 +8 ~x20 +6 ~x25 +5 ~x30 +4 ~x35 +4 ~x40 +4 ~x45 +4 ~x50 +4 ~x55 +4 ~x60 >= 56 ;
