* #variable= 420 #constraint= 41 #equal= 0 intsize= 6
+1 x1 +1 x2 +1 x3 +1 x4 +1 x5 +1 x6 +1 x7 +1 x8 +1 x9 +1 x10 +1 x11 +1 x12 +1 x13 +1 x14 +1 x15 +1 x16 +1 x17 +1 x18 +1 x19 +1 x20 >= 1 ;
+1 x21 +1 x22 +1 x23 +1 x24 +1 x25 +1 x26 +1 x27 +1 x28 +1 x29 +1 x30 +1 x31 +1 x32 +1 x33 +1 x34 +1 x35 +1 x36 +1 x37 +1 x38 +1 x39 +1 x40 >= 1 ;
+1 x41 +1 x42 +1 x43 +1 x44 +1 x45 +1 x46 +1 x47 +1 x48 +1 x49 +1 x50 +1 x51 +1 x52 +1 x53 +1 x54 +1 x55 +1 x56 +1 x57 +1 x58 +1 x59 +1 x60 >= 1 ;
+1 x61 +1 x62 +1 x63 +1 x64 +1 x65 +1 x66 +1 x67 +1 x68 +1 x69 +1 x70 +1 x71 +1 x72 +1 x73 +1 x74 +1 x75 +1 x76 +1 x77 +1 x78 +1 x79 +1 x80 >= 1 ;
+1 x81 +1 x82 +1 x83 +1 x84 +1 x85 +1 x86 +1 x87 +1 x88 +1 x89 +1 x90 +1 x91 +1 x92 +1 x93 +1 x94 +1 x95 +1 x96 +1 x97 +1 x98 +1 x99 +1 x100 >= 1 ;
+1 x101 +1 x102 +1 x103 +1 x104 +1 x105 +1 x106 +1 x107 +1 x108 +1 x109 +1 x110 +1 x111 +1 x112 +1 x113 +1 x114 +1 x115 +1 x116 +1 x117 +1 x118 +1 x119 +1 x120 >= 1 ;
+1 x121 +1 x122 +1 x123 +1 x124 +1 x125 +1 x126 +1 x127 +1 x128 +1 x129 +1 x130 +1 x131 +1 x132 +1 x133 +1 x134 +1 x135 +1 x136 +1 x137 +1 x138 +1 x139 +1 x140 >= 1 ;
+1 x141 +1 x142 +1 x143 +1 x144 +1 x145 +1 x146 +1 x147 +1 x148 +1 x149 +1 x150 +1 x151 +1 x152 +1 x153 +1 x154 +1 x155 +1 x156 +1 x157 +1 x158 +1 x159 +1 x160 >= 1 ;
+1 x161 +1 x162 +1 x163 +1 x164 +1 x165 +1 x166 +1 x167 +1 x168 +1 x169 +1 x170 +1 x171 +1 x172 +1 x173 +1 x174 +1 x175 +1 x176 +1 x177 +1 x178 +1 x179 +1 x180 >= 1 ;
+1 x181 +1 x182 +1 x183 +1 x184 +1 x185 +1 x186 +1 x187 +1 x188 +1 x189 +1 x190 +1 x191 +1 x192 +1 x193 +1 x194 +1 x195 +1 x196 +1 x197 +1 x198 +1 x199 +1 x200 >= 1 ;
+1 x201 +1 x202 +1 x203 +1 x204 +1 x205 +1 x206 +1 x207 +1 x208 +1 x209 +1 x210 +1 x211 +1 x212 +1 x213 +1 x214 +1 x215 +1 x216 +1 x217 +1 x218 +1 x219 +1 x220 >= 1 ;
+1 x221 +1 x222 +1 x223 +1 x224 +1 x225 +1 x226 +1 x227 +1 x228 +1 x229 +1 x230 +1 x231 +1 x232 +1 x233 +1 x234 +1 x235 +1 x236 +1 x237 +1 x238 +1 x239 +1 x240 >= 1 ;
+1 x241 +1 x242 +1 x243 +1 x244 +1 x245 +1 x246 +1 x247 +1 x248 +1 x249 +1 x250 +1 x251 +1 x252 +1 x253 +1 x254 +1 x255 +1 x256 +1 x257 +1 x258 +1 x259 +1 x260 >= 1 ;
+1 x261 +1 x262 +1 x263 +1 x264 +1 x265 +1 x266 +1 x267 +1 x268 +1 x269 +1 x270 +1 x271 +1 x272 +1 x273 +1 x274 +1 x275 +1 x276 +1 x277 +1 x278 +1 x279 +1 x280 >= 1 ;
+1 x281 +1 x282 +1 x283 +1 x284 +1 x285 +1 x286 +1 x287 +1 x288 +1 x289 +1 x290 +1 x291 +1 x292 +1 x293 +1 x294 +1 x295 +1 x296 +1 x297 +1 x298 +1 x299 +1 x300 >= 1 ;
+1 x301 +1 x302 +1 x303 +1 x304 +1 x305 +1 x306 +1 x307 +1 x308 +1 x309 +1 x310 +1 x311 +1 x312 +1 x313 +1 x314 +1 x315 +1 x316 +1 x317 +1 x318 +1 x319 +1 x320 >= 1 ;
+1 x321 +1 x322 +1 x323 +1 x324 +1 x325 +1 x326 +1 x327 +1 x328 +1 x329 +1 x330 +1 x331 +1 x332 +1 x333 +1 x334 +1 x335 +1 x336 +1 x337 +1 x338 +1 x339 +1 x340 >= 1 ;
+1 x341 +1 x342 +1 x343 +1 x344 +1 x345 +1 x346 +1 x347 +1 x348 +1 x349 +1 x350 +1 x351 +1 x352 +1 x353 +1 x354 +1 x355 +1 x356 +1 x357 +1 x358 +1 x359 +1 x360 >= 1 ;
+1 x361 +1 x362 +1 x363 +1 x364 +1 x365 +1 x366 +1 x367 +1 x368 +1 x369 +1 x370 +1 x371 +1 x372 +1 x373 +1 x374 +1 x375 +1 x376 +1 x377 +1 x378 +1 x379 +1 x380 >= 1 ;
+1 x381 +1 x382 +1 x383 +1 x384 +1 x385 +1 x386 +1 x387 +1 x388 +1 x389 +1 x390 +1 x391 +1 x392 +1 x393 +1 x394 +1 x395 +1 x396 +1 x397 +1 x398 +1 x399 +1 x400 >= 1 ;
+1 x401 +1 x402 +1 x403 +1 x404 +1 x405 +1 x406 +1 x407 +1 x408 +1 x409 +1 x410 +1 x411 +1 x412 +1 x413 +1 x414 +1 x415 +1 x416 +1 x417 +1 x418 +1 x419 +1 x420 >= 1 ;
+21 ~x1 +22 ~x21 +23 ~x41 +24 ~x61 +25 ~x81 +26 ~x101 +27 ~x121 +28 ~x141 +29 ~x161 +30 ~x181 +31 ~x201 +32 ~x221 +33 ~x241 +34 ~x261 +35 ~x281 +36 ~x301 +37 ~x321 +38 ~x341 +39 ~x361 +40 ~x381 +21 ~x401 >= 591 ;
+21 ~x2 +22 ~x22 +23 ~x42 +24 ~x62 +25 ~x82 +26 ~x102 +27 ~x122 +28 ~x142 +29 ~x162 +30 ~x182 +31 ~x202 +32 ~x222 +33 ~x242 +34 ~x262 +35 ~x282 +36 ~x302 +37 ~x322 +38 ~x342 +39 ~x362 +40 ~x382 +21 ~x402 >= 591 ;
+21 ~x3 +22 ~x23 +23 ~x43 +24 ~x63 +25 ~x83 +26 ~x103 +27 ~x123 +28 ~x143 +29 ~x163 +30 ~x183 +31 ~x203 +32 ~x223 +33 ~x243 +34 ~x263 +35 ~x283 +36 ~x303 +37 ~x323 +38 ~x343 +39 ~x363 +40 ~x383 +21 ~x403 >= 591 ;
+21 ~x4 +22 ~x24 +23 ~x44 +24 ~x64 +25 ~x84 +26 ~x104 +27 ~x124 +28 ~x144 +29 ~x164 +30 ~x184 +31 ~x204 +32 ~x224 +33 ~x244 +34 ~x264 +35 ~x284 +36 ~x304 +37 ~x324 +38 ~x344 +39 ~x364 +40 ~x384 +21 ~x404 >= 591 ;
+21 ~x5 +22 ~x25 +23 ~x45 +24 ~x65 +25 ~x85 +26 ~x105 +27 ~x125 +28 ~x145 +29 ~x165 +30 ~x185 +31 ~x205 +32 ~x225 +33 ~x245 +34 ~x265 +35 ~x285 +36 ~x305 +37 ~x325 +38 ~x345 +39 ~x365 +40 ~x385 +21 ~x405 >= 591 ;
+21 ~x6 +22 ~x26 +23 ~x46 +24 ~x66 +25 ~x86 +26 ~x106 +27 ~x126 +28 ~x146 +29 ~x166 +30 ~x186 +31 ~x206 +32 ~x226 +33 ~x246 +34 ~x266 +35 ~x286 +36 ~x306 +37 ~x326 +38 ~x346 +39 ~x366 +40 ~x386 +21 ~x406 >= 591 ;
+21 ~x7 +22 ~x27 +23 ~x47 +24 ~x67 +25 ~x87 +26 ~x107 +27 ~x127 +28 ~x147 +29 ~x167 +30 ~x187 +31 ~x207 +32 ~x227 +33 ~x247 +34 ~x267 +35 ~x287 +36 ~x307 +37 ~x327 +38 ~x347 +39 ~x367 +40 ~x387 +21 ~x407 >= 591 ;
+21 ~x8 +22 ~x28 +23 ~x48 +24 ~x68 +25 ~x88 +26 ~x108 +27 ~x128 +28 ~x148 +29 ~x168 +30 ~x188 +31 ~x208 +32 ~x228 +33 ~x248 +34 ~x268 +35 ~x288 +36 ~x308 +37 ~x328 +38 ~x348 +39 ~x368 +40 ~x388 +21 ~x408 >= 591 ;
+21 ~x9 +22 ~x29 +23 ~x49 +24 ~x69 +25 ~x89 +26 ~x109 +27 ~x129 +28 ~x149 +29 ~x169 +30 ~x189 +31 ~x209 +32 ~x229 +33 ~x249 +34 ~x269 +35 ~x289 +36 ~x309 +37 ~x329 +38 ~x349 +39 ~x369 +40 ~x389 +21 ~x409 >= 591 ;
+21 ~x10 +22 ~x30 +23 ~x50 +24 ~x70 +25 ~x90 +26 ~x110 +27 ~x130 +28 ~x150 +29 ~x170 +30 ~x190 +31 ~x210 +32 ~x230 +33 ~x250 +34 ~x270 +35 ~x290 +36 ~x310 +37 ~x330 +38 ~x350 +39 ~x370 +40 ~x390 +21 ~x410 >= 591 ;
+21 ~x11 +22 ~x31 +23 ~x51 +24 ~x71 +25 ~x91 +26 ~x111 +27 ~x131 +28 ~x151 +29 ~x171 +30 ~x191 +31 ~x211 +32 ~x231 +33 ~x251 +34 ~x271 +35 ~x291 +36 ~x311 +37 ~x331 +38 ~x351 +39 ~x371 +40 ~x391 +21 ~x411 >= 591 ;
+21 ~x12 +22 ~x32 +23 ~x52 +24 ~x72 +25 ~x92 +26 ~x112 +27 ~x132 +28 ~x152 +29 ~x172 +30 ~x192 +31 ~x212 +32 ~x232 +33 ~x252 +34 ~x272 +35 ~x292 +36 ~x312 +37 ~x332 +38 ~x352 +39 ~x372 +40 ~x392 +21 ~x412 >= 591 ;
+21 ~x13 +22 ~x33 +23 ~x53 +24 ~x73 +25 ~x93 +26 ~x113 +27 ~x133 +28 ~x153 +29 ~x173 +30 ~x193 +31 ~x213 +32 ~x233 +33 ~x253 +34 ~x273 +35 ~x293 +36 ~x313 +37 ~x333 +38 ~x353 +39 ~x373 +40 ~x393 +21 ~x413 >= 591 ;
+21 ~x14 +22 ~x34 +23 ~x54 +24 ~x74 +25 ~x94 +26 ~x114 +27 ~x134 +28 ~x154 +29 ~x174 +30 ~x194 +31 ~x214 +32 ~x234 +33 ~x254 +34 ~x274 +35 ~x294 +36 ~x314 +37 ~x334 +38 ~x354 +39 ~x374 +40 ~x394 +21 ~x414 >= 591 ;
+21 ~x15 +22 ~x35 +23 ~x55 +24 ~x75 +25 ~x95 +26 ~x115 +27 ~x135 +28 ~x155 +29 ~x175 +30 ~x195 +31 ~x215 +32 ~x235 +33 ~x255 +34 ~x275 +35 ~x295 +36 ~x315 +37 ~x335 +38 ~x355 +39 ~x375 +40 ~x395 +21 ~x415 >= 591 ;
+21 ~x16 +22 ~x36 +23 ~x56 +24 ~x76 +25 ~x96 +26 ~x116 +27 ~x136 +28 ~x156 +29 ~x176 +30 ~x196 +31 ~x216 +32 ~x236 +33 ~x256 +34 ~x276 +35 ~x296 +36 ~x316 +37 ~x336 +38 ~x356 +39 ~x376 +40 ~x396 +21 ~x416 >= 591 ;
+21 ~x17 +22 ~x37 +23 ~x57 +24 ~x77 +25 ~x97 +26 ~x117 +27 ~x137 +28 ~x157 +29 ~x177 +30 ~x197 +31 ~x217 +32 ~x237 +33 ~x257 +34 ~x277 +35 ~x297 +36 ~x317 +37 ~x337 +38 ~x357 +39 ~x377 +40 ~x397 +21 ~x417 >= 591 ;
+21 ~x18 +22 ~x38 +23 ~x58 +24 ~x78 +25 ~x98 +26 ~x118 +27 ~x138 +28 ~x158 +29 ~x178 +30 ~x198 +31 ~x218 +32 ~x238 +33 ~x258 +34 ~x278 +35 ~x298 +36 ~x318 +37 ~x338 +38 ~x358 +39 ~x378 +40 ~x398 +21 ~x418 >= 591 ;
+21 ~x19 +22 ~x39 +23 ~x59 +24 ~x79 +25 ~x99 +26 ~x119 +27 ~x139 +28 ~x159 +29 ~x179 +30 ~x199 +31 ~x219 +32 ~x239 +33 ~x259 +34 ~x279 +35 ~x299 +36 ~x319 +37 ~x339 +38 ~x359 +39 ~x379 +40 ~x399 +21 ~x419 >= 591 ;
+21 ~x20 +22 ~x40 +23 ~x60 +24 ~x80 +25 ~x100 +26 ~x120 +27 ~x140 +28 ~x160 +29 ~x180 +30 ~x200 +31 ~x220 +32 ~x240 +33 ~x260 +34 ~x280 +35 ~x300 +36 ~x320 +37 ~x340 +38 ~x360 +39 ~x380 +40 ~x400 +21 ~x420 >= 591 ;
